
--- Job MasterOPF.gms Start 09/10/17 18:29:54 24.5.6 r55090 WEX-WEI x86 64bit/MS Windows
GAMS 24.5.6   Copyright (C) 1987-2015 GAMS Development. All rights reserved
Licensee: Medium MUD - 10 User License                   G170505:1033AO-GEN
          Penn State University, John & Willie Leone Dept of Energy DC11293
          License for teaching and research at degree granting institutions
          License_Admin:_Mort_Webster,_mort@psu.edu________________________
--- Starting compilation
--- MasterOPF.gms(21) 2 Mb
--- .30Bus.inc(371) 3 Mb
--- MasterOPF.gms(95) 3 Mb
--- .OpfOut.INC(96) 3 Mb
--- MasterOPF.gms(95) 3 Mb
--- Starting execution: elapsed 0:00:00.039
--- MasterOPF.gms(463) 132 Mb
--- Generating MIP model opf
--- MasterOPF.gms(464) 175 Mb
---   124,607 rows  5,057 columns  374,822 non-zeroes
---   196 discrete-columns
--- Executing CPLEX: elapsed 0:00:01.671

IBM ILOG CPLEX   24.5.6 r55090 Released Nov 27, 2015 WEI x86 64bit/MS Windows 
--- GAMS/Cplex licensed for continuous and discrete problems.
Cplex 12.6.2.0

Reading data...
Starting Cplex...
Space for names approximately 5.29 Mb
Use option 'names no' to turn use of names off
Found incumbent of value 283598.693333 after 0.00 sec. (1.46 ticks)
Tried aggregator 2 times.
MIP Presolve eliminated 55216 rows and 136 columns.
MIP Presolve modified 139878 coefficients.
Aggregator did 36 substitutions.
Reduced MIP has 69355 rows, 4885 columns, and 262609 nonzeros.
Reduced MIP has 196 binaries, 0 generals, 0 SOSs, and 0 indicators.
Presolve time = 0.20 sec. (205.03 ticks)
Probing time = 0.02 sec. (11.26 ticks)
Tried aggregator 1 time.
MIP Presolve modified 1701 coefficients.
Reduced MIP has 69355 rows, 4885 columns, and 262609 nonzeros.
Reduced MIP has 196 binaries, 0 generals, 0 SOSs, and 0 indicators.
Presolve time = 0.20 sec. (109.75 ticks)
Probing time = 0.02 sec. (10.63 ticks)
MIP emphasis: balance optimality and feasibility.
MIP search method: dynamic search.
Parallel mode: none, using 1 thread.

Iteration log . . .
Iteration:     1   Dual objective     =           305.333333
Perturbation started.
Iteration:   101   Dual objective     =           305.333333
Iteration:   643   Dual objective     =           305.345223
Iteration:  1198   Dual objective     =           305.353577
Iteration:  1918   Dual objective     =           305.361224
Iteration:  2267   Dual objective     =           305.364376
Iteration:  2437   Dual objective     =           305.365315
Iteration:  2606   Dual objective     =           305.365751
Iteration:  3155   Dual objective     =           305.367433
Iteration:  3800   Dual objective     =           305.368812
Iteration:  4070   Dual objective     =           305.370300
Iteration:  4348   Dual objective     =           305.373730
Iteration:  4609   Dual objective     =           305.397094
Iteration:  4889   Dual objective     =           305.458054
Iteration:  5157   Dual objective     =           305.578321
Iteration:  5427   Dual objective     =           305.964500
Iteration:  5689   Dual objective     =           306.324520
Iteration:  5944   Dual objective     =           306.959125
Iteration:  6206   Dual objective     =           307.914262
Iteration:  6463   Dual objective     =           309.756600
Iteration:  6719   Dual objective     =           313.061724
Iteration:  6999   Dual objective     =           317.725420
Iteration:  7322   Dual objective     =           327.322334
Iteration:  7612   Dual objective     =           329.161934
Iteration:  7951   Dual objective     =           331.567113
Iteration:  8235   Dual objective     =           332.697360
Iteration:  8510   Dual objective     =           339.249232
Iteration:  8802   Dual objective     =           348.384023
Iteration:  9133   Dual objective     =           355.056649
Iteration:  9509   Dual objective     =           374.769691
Iteration:  9833   Dual objective     =           414.689840
Elapsed time = 18.73 sec. (10000.23 ticks, 9897 iterations)
Iteration: 10146   Dual objective     =           463.876595
Iteration: 10660   Dual objective     =           479.481513
Iteration: 11160   Dual objective     =           480.090829
Markowitz threshold set to 0.1
Iteration: 11514   Dual objective     =           480.229923
Iteration: 11805   Dual objective     =           480.493779
Iteration: 12304   Dual objective     =           481.236077
Iteration: 12936   Dual objective     =           482.086446
Iteration: 13353   Dual objective     =           482.504670
Iteration: 13785   Dual objective     =           482.698552
Iteration: 14191   Dual objective     =           482.809139
Iteration: 14579   Dual objective     =           483.163443
Iteration: 15044   Dual objective     =           486.705880
Iteration: 15609   Dual objective     =           498.742179
Iteration: 16134   Dual objective     =           521.841486
Iteration: 16625   Dual objective     =           522.758632
Iteration: 17197   Dual objective     =           522.979943
Iteration: 17880   Dual objective     =           523.109623
Iteration: 18467   Dual objective     =           563.933445
Iteration: 18861   Dual objective     =           564.210268
Iteration: 19373   Dual objective     =           595.925387
Iteration: 19881   Dual objective     =           596.067541
Iteration: 20306   Dual objective     =           618.694376
Elapsed time = 38.03 sec. (20000.40 ticks, 20817 iterations)
Iteration: 20874   Dual objective     =           639.180150
Iteration: 21458   Dual objective     =           639.687600
Iteration: 21990   Dual objective     =           640.396522
Iteration: 22486   Dual objective     =           640.528165
Iteration: 22962   Dual objective     =           640.572094
Iteration: 23390   Dual objective     =           640.598288
Iteration: 23837   Dual objective     =           640.643006
Iteration: 24364   Dual objective     =           640.683871
Iteration: 24869   Dual objective     =           643.538099
Iteration: 25292   Dual objective     =           694.874962
Iteration: 25693   Dual objective     =           695.490913
Iteration: 26096   Dual objective     =           695.569247
Iteration: 26516   Dual objective     =           695.610587
Iteration: 26957   Dual objective     =           695.649347
Iteration: 27355   Dual objective     =           695.676025
Iteration: 27780   Dual objective     =           695.690668
Iteration: 28168   Dual objective     =           695.713458
Iteration: 28549   Dual objective     =           695.737037
Elapsed time = 59.06 sec. (30002.27 ticks, 28646 iterations)
Iteration: 28920   Dual objective     =           695.754583
Iteration: 29274   Dual objective     =           695.764729
Iteration: 29639   Dual objective     =           695.768393
Iteration: 30022   Dual objective     =           695.770694
Removing perturbation.
Iteration: 30095   Scaled dual infeas =             0.003903
Iteration: 30103   Dual objective     =           695.728315
Root relaxation solution time = 64.00 sec. (33069.63 ticks)

        Nodes                                         Cuts/
   Node  Left     Objective  IInf  Best Integer    Best Bound    ItCnt     Gap

*     0+    0                       283598.6933      305.3333            99.89%
Found incumbent of value 283598.693333 after 64.50 sec. (33459.34 ticks)
      0     0      695.7285    32   283598.6933      695.7285    30119   99.75%
*     0+    0                         7229.1310      695.7285            90.38%
Found incumbent of value 7229.131042 after 74.59 sec. (38264.55 ticks)
      0     0      696.3578    35     7229.1310     Cuts: 166    32300   90.37%
      0     0      697.0395    45     7229.1310     Cuts: 145    34024   90.36%
      0     0      697.5234    45     7229.1310     Cuts: 133    35504   90.35%
      0     0      697.6423    46     7229.1310      Cuts: 85    36202   90.35%
      0     0      697.6886    40     7229.1310      Cuts: 36    36726   90.35%
      0     0      697.7208    38     7229.1310      Cuts: 33    37194   90.35%
      0     0      697.7261    40     7229.1310    MIRcuts: 9    37414   90.35%
*     0+    0                         7100.8610      697.7261            90.17%
Found incumbent of value 7100.860993 after 162.05 sec. (89574.41 ticks)
*     0+    0                         1677.1778      697.7261            58.40%
Found incumbent of value 1677.177832 after 172.16 sec. (98093.15 ticks)
Heuristic still looking.
      0     2      697.7261    40     1677.1778      697.7264    37414   58.40%
Elapsed time = 198.14 sec. (115981.62 ticks, tree = 0.00 MB, solutions = 4)
      1     3      697.9632    39     1677.1778      697.7268    38426   58.40%
      2     4      698.2132    34     1677.1778      697.9636    39614   58.38%
      3     5      698.4979    24     1677.1778      697.9636    40312   58.38%
      4     6      698.5010    25     1677.1778      697.9636    41721   58.38%
      5     7      698.9631    17     1677.1778      697.9636    44328   58.38%
      6     8      699.0118    19     1677.1778      697.9636    46187   58.38%
      7     9      699.4982    11     1677.1778      697.9636    48698   58.38%
      8    10      699.5255    10     1677.1778      697.9636    48862   58.38%
      9    11      699.7135     9     1677.1778      697.9636    49072   58.38%
     10    10        cutoff           1677.1778      697.9636    49959   58.38%
Elapsed time = 232.31 sec. (137788.17 ticks, tree = 0.08 MB, solutions = 4)
     11    11      699.7557    10     1677.1778      697.9636    50082   58.38%
     12    10        cutoff           1677.1778      697.9636    51809   58.38%
     13    11      699.8242    11     1677.1778      697.9636    52085   58.38%
*    14    10      integral     0     1202.9230      697.9636    54089   41.98%
Found incumbent of value 1202.923006 after 247.64 sec. (143099.29 ticks)
     17    11        cutoff           1202.9230      697.9636    55506   41.98%
     18    12      700.0048    11     1202.9230      697.9636    55602   41.98%
     19    11        cutoff           1202.9230      697.9636    56361   41.98%
     20    12      700.0114    13     1202.9230      697.9636    56480   41.98%
*    21    11      integral     0      703.9778      697.9636    57385    0.85%
Found incumbent of value 703.977842 after 266.06 sec. (150500.62 ticks)
     24    12        cutoff            703.9778      697.9636    58740    0.85%
     25    13      700.0142    10      703.9778      697.9636    58744    0.85%
     26    14      700.0541    15      703.9778      697.9636    59084    0.85%
Elapsed time = 269.88 sec. (152947.95 ticks, tree = 0.91 MB, solutions = 6)
*    27    13      integral     0      703.5008      697.9636    60089    0.79%
Found incumbent of value 703.500768 after 273.19 sec. (154698.61 ticks)
     29    13        cutoff            703.5008      697.9636    61442    0.79%
     30    14      700.0739    15      703.5008      697.9636    61659    0.79%
     31    13        cutoff            703.5008      697.9636    61977    0.79%
     32    14      700.0746    16      703.5008      697.9636    62123    0.79%
     33    13        cutoff            703.5008      697.9636    62769    0.79%
     34    14      700.0876    14      703.5008      697.9636    62998    0.79%
     35    15      700.1037    13      703.5008      697.9636    63274    0.79%
     36    16      700.1180    13      703.5008      697.9636    63521    0.79%
     37    15        cutoff            703.5008      697.9636    64390    0.79%
     38    16      700.1183    13      703.5008      697.9636    64394    0.79%
Elapsed time = 298.88 sec. (165159.19 ticks, tree = 0.93 MB, solutions = 7)
     40    16      700.1195    14      703.5008      697.9636    65041    0.79%
     41    15        cutoff            703.5008      697.9636    66209    0.79%
     42    16      700.1277    16      703.5008      697.9636    66379    0.79%
     43    15        cutoff            703.5008      697.9636    67059    0.79%
     44    16      700.1409    16      703.5008      697.9636    67292    0.79%
     45    15        cutoff            703.5008      697.9636    67889    0.79%
     46    16      700.1444    16      703.5008      697.9636    68045    0.79%
     47    15        cutoff            703.5008      697.9636    68982    0.79%
     48    16      700.1450    15      703.5008      697.9636    69040    0.79%
     49    17      700.1483    15      703.5008      697.9636    69141    0.79%
Elapsed time = 316.95 sec. (175195.76 ticks, tree = 0.94 MB, solutions = 7)
     50    16        cutoff            703.5008      697.9636    69875    0.79%
     51    17      700.1489    13      703.5008      697.9636    69901    0.79%
     52    18      700.1495    13      703.5008      697.9636    69939    0.79%
     53    17        cutoff            703.5008      697.9636    70527    0.79%
     54    18      700.1571    13      703.5008      697.9636    70668    0.79%
     55    17        cutoff            703.5008      697.9636    71248    0.79%
     56    18      700.1572    12      703.5008      697.9636    71283    0.79%
     57    19      700.1589    12      703.5008      697.9636    71365    0.79%
     58    18        cutoff            703.5008      697.9636    72394    0.79%
     59    19      700.1639    12      703.5008      697.9636    72577    0.79%
Elapsed time = 324.92 sec. (179761.09 ticks, tree = 0.96 MB, solutions = 7)
     61    19      700.1707    12      703.5008      697.9636    73320    0.79%
     62    18        cutoff            703.5008      697.9636    73828    0.79%
     63    19      700.1755    11      703.5008      697.9636    73964    0.79%
     64    20      700.1783    12      703.5008      697.9636    74021    0.79%
     65    19        cutoff            703.5008      697.9636    74842    0.79%
     66    20      700.1783    10      703.5008      697.9636    74862    0.79%
     67    21      700.1878    11      703.5008      697.9636    75005    0.79%
     68    20        cutoff            703.5008      697.9636    75776    0.79%
     69    21      700.2187    13      703.5008      697.9636    76247    0.79%
     70    20        cutoff            703.5008      697.9636    76806    0.79%
Elapsed time = 334.30 sec. (185131.92 ticks, tree = 0.97 MB, solutions = 7)
     72    20        cutoff            703.5008      697.9636    79304    0.79%
     73    21      700.2295    15      703.5008      697.9636    79330    0.79%
     74    22      700.2366    13      703.5008      697.9636    79562    0.79%
     75    23      700.2378    12      703.5008      697.9636    79646    0.79%
     76    24      700.2454    11      703.5008      697.9636    79842    0.79%
     77    25      700.2465    12      703.5008      697.9636    79919    0.79%
     78    24        cutoff            703.5008      697.9636    80695    0.79%
     79    25      700.2533    12      703.5008      697.9636    80888    0.79%
     80    24        cutoff            703.5008      697.9636    81493    0.79%
     81    25      700.2569    11      703.5008      697.9636    81631    0.79%
Elapsed time = 346.38 sec. (192078.91 ticks, tree = 1.02 MB, solutions = 7)
     84    26      700.2837    14      703.5008      697.9636    82513    0.79%
     85    25        cutoff            703.5008      697.9636    83171    0.79%
     86    26      700.3063    14      703.5008      697.9636    83499    0.79%
     87    25        cutoff            703.5008      697.9636    84195    0.79%
     88    26      700.3221    15      703.5008      697.9636    84454    0.79%
     89    25        cutoff            703.5008      697.9636    84726    0.79%
     90    26      700.3251    15      703.5008      697.9636    84894    0.79%
     91    25        cutoff            703.5008      697.9636    85383    0.79%
     92    26      700.3302    14      703.5008      697.9636    85611    0.79%
     93    27      700.3334    13      703.5008      697.9636    85775    0.79%
Elapsed time = 376.66 sec. (205503.19 ticks, tree = 1.04 MB, solutions = 7)
     97    29        cutoff            703.5008      697.9636    86912    0.79%
     98    30      700.3762    11      703.5008      697.9636    87255    0.79%
     99    29        cutoff            703.5008      697.9636    87755    0.79%
    100    30      700.4120    12      703.5008      697.9636    88195    0.79%
    101    29        cutoff            703.5008      697.9636    88734    0.79%
    102    30      700.4150    12      703.5008      697.9636    88879    0.79%
    103    29        cutoff            703.5008      697.9636    89350    0.79%
    104    30      700.4266    13      703.5008      697.9636    89563    0.79%
    105    29        cutoff            703.5008      697.9636    89907    0.79%
    106    30      700.4494    10      703.5008      697.9636    90252    0.79%
Elapsed time = 392.45 sec. (214628.21 ticks, tree = 1.07 MB, solutions = 7)
    109    31        cutoff            703.5008      697.9636    91337    0.79%
    110    32      700.4772    16      703.5008      697.9636    91455    0.79%
    111    33      700.5071    13      703.5008      697.9636    91951    0.79%
    112    34      700.5305    13      703.5008      697.9636    92309    0.79%
    113    33        cutoff            703.5008      697.9636    93049    0.79%
    114    34      700.5566    10      703.5008      697.9636    93352    0.79%
    115    35      700.5806    11      703.5008      697.9636    93692    0.79%
    116    34        cutoff            703.5008      697.9636    94268    0.79%
    117    35      700.5818    10      703.5008      697.9636    94357    0.79%
    118    36      700.5988    10      703.5008      697.9636    94657    0.79%
Elapsed time = 406.31 sec. (222609.82 ticks, tree = 1.12 MB, solutions = 7)
    125    37        cutoff            703.5008      697.9636    97566    0.79%
    126    38      700.8318     9      703.5008      697.9636    98090    0.79%
    127    37        cutoff            703.5008      697.9636    98199    0.79%
    128    38      700.8740     7      703.5008      697.9636    98524    0.79%
    129    39      700.9060     7      703.5008      697.9636    98698    0.79%
    130    38        cutoff            703.5008      697.9636    98731    0.79%
    131    39      700.9581     8      703.5008      697.9636    99071    0.79%
    132    38        cutoff            703.5008      697.9636    99177    0.79%
    133    39      701.0458     8      703.5008      697.9636    99591    0.79%
    134    38        cutoff            703.5008      697.9636    99725    0.79%
Elapsed time = 420.89 sec. (230461.25 ticks, tree = 1.15 MB, solutions = 7)
    144    42      701.7820     9      703.5008      697.9636   102230    0.79%
    145    41        cutoff            703.5008      697.9636   102250    0.79%
    146    42      701.8160     8      703.5008      697.9636   102520    0.79%
    147    43      701.8758     5      703.5008      697.9636   102845    0.79%
    148    44      701.9291     6      703.5008      697.9636   103070    0.79%
    149    43        cutoff            703.5008      697.9636   103194    0.79%
    150    44      701.9831     7      703.5008      697.9636   103562    0.79%
    151    43        cutoff            703.5008      697.9636   103626    0.79%
    152    44      702.0968     9      703.5008      697.9636   104166    0.79%
    153    43        cutoff            703.5008      697.9636   104262    0.79%
Elapsed time = 436.24 sec. (238510.40 ticks, tree = 1.20 MB, solutions = 7)
    164    46      702.5873    10      703.5008      697.9636   106772    0.79%
    165    45        cutoff            703.5008      697.9636   106825    0.79%
    166    46      702.6352     8      703.5008      697.9636   107099    0.79%
    167    47      702.6591     7      703.5008      697.9636   107271    0.79%
    168    48      702.7533     7      703.5008      697.9636   107580    0.79%
    169    47        cutoff            703.5008      697.9636   107600    0.79%
    170    48      702.9010     9      703.5008      697.9636   107974    0.79%
    171    47        cutoff            703.5008      697.9636   108038    0.79%
    172    48      702.9873     7      703.5008      697.9636   108212    0.79%
    173    49      703.1703     6      703.5008      697.9636   108552    0.79%
Elapsed time = 451.11 sec. (246277.71 ticks, tree = 1.25 MB, solutions = 7)
    180    50      698.5794    30      703.5008      697.9636   110122    0.79%
                                                   MIRcuts: 2                  
    181    51      698.5794    30      703.5008      697.9636   110131    0.79%
    182    52      698.5794    29      703.5008      697.9636   110135    0.79%
    183    53      698.5805    28      703.5008      697.9636   110194    0.79%
    184    54      698.5806    28      703.5008      697.9636   110196    0.79%
    185    55      699.0024    24      703.5008      697.9636   111226    0.79%
    186    56      698.5806    27      703.5008      697.9636   111229    0.79%
    187    57      698.6902    29      703.5008      697.9636   111685    0.79%
    188    58      698.9607    22      703.5008      697.9636   112383    0.79%
    189    59      698.9785    24      703.5008      697.9636   112563    0.79%
Elapsed time = 462.66 sec. (256774.73 ticks, tree = 1.34 MB, solutions = 7)
    192    60        cutoff            703.5008      697.9636   114480    0.79%
    193    59        cutoff            703.5008      697.9636   118200    0.79%
    194    58        cutoff            703.5008      697.9636   118977    0.79%
    195    59      698.1258    40      703.5008      698.1259   120897    0.76%
                                                      Cuts: 3                  
    196    60      698.1420    36      703.5008      698.1261   121299    0.76%
    197    61      698.4679    38      703.5008      698.1261   121883    0.76%
    198    62      698.4681    38      703.5008      698.1261   122017    0.76%
    199    63      698.4681    38      703.5008      698.1261   122058    0.76%
    200    64      698.4684    37      703.5008      698.1261   122189    0.76%
    201    65      698.4697    33      703.5008      698.1261   122371    0.76%
Elapsed time = 503.84 sec. (281244.44 ticks, tree = 2.20 MB, solutions = 7)
    205    69      698.9332    38      703.5008      698.1261   124635    0.76%
    206    70      698.9359    38      703.5008      698.1261   124944    0.76%
    207    71      698.9389    36      703.5008      698.1261   125289    0.76%
    208    72      698.9667    36      703.5008      698.1261   125858    0.76%
    209    73      698.9700    38      703.5008      698.1261   126107    0.76%
    210    74      698.9701    39      703.5008      698.1261   126142    0.76%
    211    75      698.9702    39      703.5008      698.1261   126179    0.76%
    212    76      698.9702    38      703.5008      698.1261   126187    0.76%
    213    77      698.9901    35      703.5008      698.1261   126432    0.76%
    214    78      699.4854    31      703.5008      698.1261   127366    0.76%
Elapsed time = 527.47 sec. (296587.20 ticks, tree = 2.33 MB, solutions = 7)
    220    84      700.0898    29      703.5008      698.1261   130548    0.76%
    221    85      700.6624    34      703.5008      698.1261   132760    0.76%
    222    86      700.6632    34      703.5008      698.1261   132946    0.76%
    223    87      700.6632    32      703.5008      698.1261   132996    0.76%
    224    88      700.6633    31      703.5008      698.1261   133018    0.76%
    225    89      700.6673    34      703.5008      698.1261   133285    0.76%
    226    90      700.6698    32      703.5008      698.1261   133499    0.76%
    227    91      700.6699    32      703.5008      698.1261   133517    0.76%
    228    92      700.6699    31      703.5008      698.1261   133547    0.76%
    229    93      700.6701    31      703.5008      698.1261   133611    0.76%
Elapsed time = 542.78 sec. (306162.63 ticks, tree = 8.05 MB, solutions = 7)
    230    94      700.7112    31      703.5008      698.1261   133866    0.76%
    231    95      700.7163    29      703.5008      698.1261   133955    0.76%
    232    96      700.7502    32      703.5008      698.1261   134320    0.76%
    233    97      700.7970    31      703.5008      698.1261   134639    0.76%
    234    98      701.0150    37      703.5008      698.1261   135636    0.76%
    235    99      701.0151    37      703.5008      698.1261   135664    0.76%
    236   100      701.0151    36      703.5008      698.1261   135672    0.76%
    237   101      701.0152    36      703.5008      698.1261   135685    0.76%
    238   102      701.0152    35      703.5008      698.1261   135696    0.76%
    239   103      701.0152    34      703.5008      698.1261   135698    0.76%
Elapsed time = 557.34 sec. (316041.44 ticks, tree = 16.11 MB, solutions = 7)
    240   104      701.0152    34      703.5008      698.1261   135704    0.76%
    241   105      701.0156    36      703.5008      698.1261   135766    0.76%
    242   106      701.0156    35      703.5008      698.1261   135796    0.76%
    243   107      701.0156    34      703.5008      698.1261   135808    0.76%
    244   108      701.0159    32      703.5008      698.1261   135861    0.76%
    245   109      701.0171    35      703.5008      698.1261   136023    0.76%
    246   110      701.0171    36      703.5008      698.1261   136047    0.76%
    247   111      701.0171    35      703.5008      698.1261   136070    0.76%
    248   112      701.0451    36      703.5008      698.1261   136357    0.76%
    249   113      701.0591    37      703.5008      698.1261   136668    0.76%
Elapsed time = 570.28 sec. (323996.79 ticks, tree = 24.17 MB, solutions = 7)
    258   122      701.1365    30      703.5008      698.1261   138818    0.76%
    259   123      701.1365    29      703.5008      698.1261   138819    0.76%
    260   124      701.1646    27      703.5008      698.1261   139113    0.76%
    261   125      701.1843    29      703.5008      698.1261   139448    0.76%
    262   126      701.1844    27      703.5008      698.1261   139486    0.76%
    263   127      701.2068    33      703.5008      698.1261   139848    0.76%
    264   128      701.2068    33      703.5008      698.1261   139871    0.76%
    265   129      701.2068    32      703.5008      698.1261   139886    0.76%
    266   130      701.2116    29      703.5008      698.1261   140217    0.76%
    267   131      701.2116    28      703.5008      698.1261   140252    0.76%
Elapsed time = 578.86 sec. (331975.45 ticks, tree = 38.68 MB, solutions = 7)
    273   137      701.4291    28      703.5008      698.1261   142038    0.76%
    274   138      701.4292    29      703.5008      698.1261   142104    0.76%
    275   139      701.4298    28      703.5008      698.1261   142175    0.76%
    276   140      701.4582    27      703.5008      698.1261   142601    0.76%
    277   141      701.4588    27      703.5008      698.1261   142714    0.76%
    278   142      701.4612    27      703.5008      698.1261   142986    0.76%
    279   143      701.4613    28      703.5008      698.1261   143014    0.76%
    280   144      701.4613    26      703.5008      698.1261   143048    0.76%
    281   145      701.5012    26      703.5008      698.1261   143558    0.76%
    282   146      701.5081    24      703.5008      698.1261   143958    0.76%
Elapsed time = 589.11 sec. (339626.48 ticks, tree = 50.77 MB, solutions = 7)
    305   169      701.5613    20      703.5008      698.1261   145858    0.76%
    306   170      701.5679    22      703.5008      698.1261   146039    0.76%
    307   171      701.5803    25      703.5008      698.1261   146249    0.76%
    308   172      701.5839    22      703.5008      698.1261   146431    0.76%
    309   173      701.5843    23      703.5008      698.1261   146571    0.76%
    310   174      701.5843    22      703.5008      698.1261   146574    0.76%
    311   175      701.5843    21      703.5008      698.1261   146596    0.76%
    312   176      701.5889    23      703.5008      698.1261   146782    0.76%
    313   177      701.5899    21      703.5008      698.1261   146916    0.76%
    314   178      701.5932    20      703.5008      698.1261   147055    0.76%
Elapsed time = 598.49 sec. (345789.32 ticks, tree = 76.57 MB, solutions = 7)
    328   192      701.6597    22      703.5008      698.1261   149068    0.76%
    329   193      701.6598    21      703.5008      698.1261   149149    0.76%
    330   194      701.6598    21      703.5008      698.1261   149180    0.76%
    331   195      701.6601    19      703.5008      698.1261   149206    0.76%
    332   196      701.6615    19      703.5008      698.1261   149286    0.76%
    333   197      701.6624    20      703.5008      698.1261   149409    0.76%
    334   198      701.6629    20      703.5008      698.1261   149442    0.76%
    335   199      701.6629    21      703.5008      698.1261   149451    0.76%
    336   200      701.6630    21      703.5008      698.1261   149464    0.76%
    337   201      701.6630    21      703.5008      698.1261   149465    0.76%
Elapsed time = 605.72 sec. (350529.67 ticks, tree = 95.11 MB, solutions = 7)
    354   218      701.7361    17      703.5008      698.1261   151629    0.76%
    355   219      701.7469    15      703.5008      698.1261   151878    0.76%
    356   220      701.7518    15      703.5008      698.1261   152049    0.76%
    357   221      701.7561    15      703.5008      698.1261   152213    0.76%
    358   222      701.7572    13      703.5008      698.1261   152260    0.76%
    359   223      701.7575    13      703.5008      698.1261   152287    0.76%
    360   224      701.7575    12      703.5008      698.1261   152299    0.76%
    361   225      701.7578    12      703.5008      698.1261   152324    0.76%
    362   226      702.4097    13      703.5008      698.1261   153236    0.76%
    363   227      702.4204    13      703.5008      698.1261   153361    0.76%
Elapsed time = 618.81 sec. (357537.68 ticks, tree = 116.06 MB, solutions = 7)
    381   245      702.7015     6      703.5008      698.1261   155734    0.76%
    382   246      702.7506     5      703.5008      698.1261   155948    0.76%
    383   245        cutoff            703.5008      698.1261   156348    0.76%
    384   246      702.7678     4      703.5008      698.1261   156482    0.76%
    385   245        cutoff            703.5008      698.1261   156698    0.76%
    386   246      703.0683     3      703.5008      698.1261   157158    0.76%
    387   245        cutoff            703.5008      698.1261   157238    0.76%
    388   244        cutoff            703.5008      698.1261   157327    0.76%
    389   245      698.4241    35      703.5008      698.1464   157720    0.76%
    390   246      698.6830    34      703.5008      698.1464   158075    0.76%
Elapsed time = 643.99 sec. (368142.64 ticks, tree = 132.18 MB, solutions = 7)
    399   255      698.9665    33      703.5008      698.1464   159780    0.76%
    400   256      699.1422    33      703.5008      698.1464   160248    0.76%
    401   257      699.2501    32      703.5008      698.1464   160631    0.76%
    402   258      699.2542    32      703.5008      698.1464   160833    0.76%
    403   259      699.2551    31      703.5008      698.1464   160930    0.76%
    404   260      699.3237    31      703.5008      698.1464   161167    0.76%
    405   261      699.3238    31      703.5008      698.1464   161182    0.76%
    406   262      699.3240    30      703.5008      698.1464   161202    0.76%
    407   263      699.4195    29      703.5008      698.1464   161521    0.76%
    408   264      699.5908    32      703.5008      698.1464   162156    0.76%
Elapsed time = 653.13 sec. (377387.60 ticks, tree = 146.69 MB, solutions = 7)
    414   270      700.2136    28      703.5008      698.1464   163909    0.76%
    415   271      700.2139    27      703.5008      698.1464   163998    0.76%
    416   272      700.2541    29      703.5008      698.1464   164304    0.76%
    417   273      700.2551    27      703.5008      698.1464   164444    0.76%
    418   274      700.2724    26      703.5008      698.1464   164761    0.76%
    419   275      700.2770    26      703.5008      698.1464   164822    0.76%
    420   276      700.3102    27      703.5008      698.1464   165327    0.76%
    421   277      700.3115    27      703.5008      698.1464   165444    0.76%
    422   278      700.3122    26      703.5008      698.1464   165567    0.76%
    423   279      700.3162    23      703.5008      698.1464   165667    0.76%
Elapsed time = 675.11 sec. (392532.39 ticks, tree = 158.78 MB, solutions = 7)
    437   293      700.4712    28      703.5008      698.1464   167368    0.76%
    438   294      700.4712    26      703.5008      698.1464   167403    0.76%
    439   295      700.4810    27      703.5008      698.1464   167701    0.76%
    440   296      700.4836    26      703.5008      698.1464   167917    0.76%
    441   297      700.4885    25      703.5008      698.1464   168303    0.76%
    442   298      700.4885    25      703.5008      698.1464   168304    0.76%
    443   299      700.4997    29      703.5008      698.1464   168693    0.76%
    444   300      700.4998    27      703.5008      698.1464   168775    0.76%
    445   301      700.4998    27      703.5008      698.1464   168776    0.76%
    446   302      700.5000    26      703.5008      698.1464   168828    0.76%
Elapsed time = 682.44 sec. (399590.39 ticks, tree = 177.32 MB, solutions = 7)
    458   314      700.6064    27      703.5008      698.1464   170868    0.76%
    459   315      700.6067    26      703.5008      698.1464   170897    0.76%
    460   316      700.6069    26      703.5008      698.1464   170925    0.76%
    461   317      700.6080    26      703.5008      698.1464   171079    0.76%
    462   318      700.6133    25      703.5008      698.1464   171287    0.76%
    463   319      700.6136    26      703.5008      698.1464   171367    0.76%
    464   320      700.6138    25      703.5008      698.1464   171397    0.76%
    465   321      700.8195    25      703.5008      698.1464   172244    0.76%
    466   322      700.8195    24      703.5008      698.1464   172270    0.76%
    467   323      700.8227    27      703.5008      698.1464   172474    0.76%
Elapsed time = 691.92 sec. (407568.87 ticks, tree = 194.25 MB, solutions = 7)
    480   336      700.8284    24      703.5008      698.1464   173252    0.76%
    481   337      700.8298    24      703.5008      698.1464   173388    0.76%
    482   338      700.8299    25      703.5008      698.1464   173444    0.76%
    483   339      700.8300    24      703.5008      698.1464   173508    0.76%
    484   340      700.8300    23      703.5008      698.1464   173509    0.76%
    485   341      700.8548    23      703.5008      698.1464   174100    0.76%
    486   342      700.8568    25      703.5008      698.1464   174240    0.76%
    487   343      700.8570    26      703.5008      698.1464   174298    0.76%
    488   344      700.8571    25      703.5008      698.1464   174326    0.76%
    489   345      700.8576    23      703.5008      698.1464   174413    0.76%
Elapsed time = 701.31 sec. (414644.93 ticks, tree = 211.98 MB, solutions = 7)
    509   365      700.8926    15      703.5008      698.1464   176291    0.76%
    510   366      700.8927    15      703.5008      698.1464   176312    0.76%
    511   367      700.8927    15      703.5008      698.1464   176314    0.76%
    512   368      700.8934    15      703.5008      698.1464   176392    0.76%
    513   369      700.8934    14      703.5008      698.1464   176422    0.76%
    514   370      700.9282    18      703.5008      698.1464   176935    0.76%
    515   371      700.9351    21      703.5008      698.1464   177192    0.76%
    516   372      700.9363    20      703.5008      698.1464   177290    0.76%
    517   373      700.9364    18      703.5008      698.1464   177326    0.76%
    518   374      700.9365    19      703.5008      698.1464   177371    0.76%
Elapsed time = 710.50 sec. (420727.88 ticks, tree = 235.36 MB, solutions = 7)
    522   378      700.9679    23      703.5008      698.1464   178231    0.76%
    523   379      700.9681    22      703.5008      698.1464   178278    0.76%
    524   380      700.9681    22      703.5008      698.1464   178301    0.76%
    525   381      700.9682    21      703.5008      698.1464   178331    0.76%
    526   382      700.9706    22      703.5008      698.1464   178486    0.76%
    527   383      700.9707    22      703.5008      698.1464   178500    0.76%
    528   384      700.9709    20      703.5008      698.1464   178552    0.76%
Sending CtrlC signal

Flow cuts applied:  75
Mixed integer rounding cuts applied:  167
Lift and project cuts applied:  4
Gomory fractional cuts applied:  2

Root node processing (before b&c):
  Real time             =  198.14 sec. (115958.80 ticks)
Sequential b&c:
  Real time             =  683.64 sec. (417333.17 ticks)
                          ------------
Total (root+branch&cut) =  881.78 sec. (533291.96 ticks)
MIP status(113): aborted
Cplex Time: 881.78sec (det. 533291.98 ticks)
Fixing integer variables, and solving final LP...
Tried aggregator 1 time.
DUAL formed by presolve
LP Presolve eliminated 113555 rows and 3986 columns.
Aggregator did 27 substitutions.
Reduced LP has 1044 rows, 12465 columns, and 34353 nonzeros.
Presolve time = 0.03 sec. (41.69 ticks)

Iteration log . . .
Iteration:     1    Objective     =           305.333333
Iteration:   219    Objective     =           305.333333
Iteration:   423    Objective     =           305.333333
Perturbation started.
Iteration:   501    Objective     =           305.333333
Iteration:   640    Objective     =           305.342662
Iteration:   782    Objective     =           323.912770
Iteration:   918    Objective     =           378.574490
Iteration:  1056    Objective     =           496.496725
Iteration:  1197    Objective     =           637.517520
Iteration:  1323    Objective     =           697.455623
Iteration:  1440    Objective     =           703.215973
Iteration:  1549    Objective     =           703.512198
Removing perturbation.
Fixed MIP status(1): optimal
Cplex Time: 0.11sec (det. 122.64 ticks)

Problem aborted.

MIP Solution:          703.500768    (208017 iterations, 529 nodes)
Final Solve:           703.500768    (1604 iterations)

Best possible:         698.146366
Absolute gap:            5.354403
Relative gap:            0.007611

Terminate batch job (Y/N)? 
--- Restarting execution
--- MasterOPF.gms(464) 135 Mb
--- Reading solution for model opf
--- MasterOPF.gms(464) 141 Mb
--- Executing after solve: elapsed 0:14:48.083
--- MasterOPF.gms(532) 142 Mb
--- Putfile OPF_RES \\win.pass.psu.edu\jvb5999\Documents\GitHub\TransExpand\DC_OPF_DetEQ\OPF_results.txt
*** Status: Normal completion
--- Job MasterOPF.gms Stop 09/10/17 18:44:42 elapsed 0:14:48.133
